 Ag Br
   1.0
     5.8234472838929738    0.0000000000000000    0.0000000000000000
     0.0000000000000000    5.8234472838929738    0.0000000000000000
     0.0000000000000000    0.0000000000000000    5.8234472838929738
Ag Br
   4   4
Direct
   0.0000000000000000  0.0000000000000000  0.0000000000000000
   0.0000000000000000  0.5000000000000000  0.5000000000000000
   0.5000000000000000  0.0000000000000000  0.5000000000000000
   0.5000000000000000  0.5000000000000000  0.0000000000000000
   0.5000000000000000  0.5000000000000000  0.5000000000000000
   0.5000000000000000  0.0000000000000000  0.0000000000000000
   0.0000000000000000  0.5000000000000000  0.0000000000000000
   0.0000000000000000  0.0000000000000000  0.5000000000000000
