Ag4 Br4
1.0
5.823447 0.000000 0.000000
0.000000 5.823447 0.000000
0.000000 0.000000 5.823447
Ag Br Ag Br Ag Br Ag Br
1 1 1 1 1 1 1 1
direct
0.000000 0.000000 0.000000 Ag
0.500000 0.000000 0.000000 Br
0.000000 0.500000 0.500000 Ag
0.500000 0.500000 0.500000 Br
0.500000 0.000000 0.500000 Ag
0.000000 0.000000 0.500000 Br
0.500000 0.500000 0.000000 Ag
0.000000 0.500000 0.000000 Br
