Ca24 Al16 Si24 O96
1.0
11.850000 0.000000 0.000000
0.000000 11.850000 0.000000
0.000000 0.000000 11.850000
Al Ca O Si Al Ca O Si
8 12 48 12 8 12 48 12
direct
0.000000 0.000000 0.000000 Al
0.500000 0.000000 0.000000 Al
0.250000 0.750000 0.250000 Al
0.250000 0.250000 0.250000 Al
0.000000 0.500000 0.000000 Al
0.000000 0.000000 0.500000 Al
0.250000 0.250000 0.750000 Al
0.750000 0.250000 0.250000 Al
0.000000 0.250000 0.125000 Ca
0.625000 0.000000 0.250000 Ca
0.250000 0.125000 0.000000 Ca
0.000000 0.250000 0.625000 Ca
0.875000 0.500000 0.250000 Ca
0.250000 0.375000 0.500000 Ca
0.500000 0.250000 0.875000 Ca
0.250000 0.625000 0.000000 Ca
0.125000 0.000000 0.250000 Ca
0.250000 0.875000 0.500000 Ca
0.375000 0.500000 0.250000 Ca
0.500000 0.250000 0.375000 Ca
0.038300 0.045400 0.651510 O
0.151510 0.961700 0.045400 O
0.954600 0.151510 0.461700 O
0.038300 0.454600 0.151510 O
0.348490 0.538300 0.454600 O
0.545400 0.348490 0.038300 O
0.461700 0.045400 0.348490 O
0.288300 0.098490 0.204600 O
0.598490 0.795400 0.288300 O
0.295400 0.711700 0.598490 O
0.211700 0.401510 0.295400 O
0.901510 0.704600 0.211700 O
0.204600 0.788300 0.901510 O
0.288300 0.901510 0.295400 O
0.598490 0.204600 0.211700 O
0.295400 0.288300 0.901510 O
0.211700 0.598490 0.204600 O
0.901510 0.295400 0.288300 O
0.204600 0.211700 0.598490 O
0.151510 0.038300 0.454600 O
0.454600 0.348490 0.538300 O
0.038300 0.545400 0.348490 O
0.348490 0.461700 0.045400 O
0.045400 0.151510 0.961700 O
0.461700 0.954600 0.151510 O
0.348490 0.038300 0.545400 O
0.045400 0.348490 0.461700 O
0.961700 0.045400 0.151510 O
0.151510 0.461700 0.954600 O
0.454600 0.151510 0.038300 O
0.538300 0.454600 0.348490 O
0.211700 0.901510 0.704600 O
0.901510 0.204600 0.788300 O
0.204600 0.288300 0.098490 O
0.288300 0.598490 0.795400 O
0.598490 0.295400 0.711700 O
0.295400 0.211700 0.401510 O
0.711700 0.598490 0.295400 O
0.401510 0.295400 0.211700 O
0.704600 0.211700 0.901510 O
0.788300 0.901510 0.204600 O
0.098490 0.204600 0.288300 O
0.795400 0.288300 0.598490 O
0.848490 0.461700 0.454600 O
0.045400 0.651510 0.038300 O
0.461700 0.454600 0.848490 O
0.651510 0.038300 0.045400 O
0.454600 0.848490 0.461700 O
0.375000 0.000000 0.250000 Si
0.250000 0.125000 0.500000 Si
0.000000 0.750000 0.125000 Si
0.375000 0.500000 0.750000 Si
0.250000 0.375000 0.000000 Si
0.500000 0.750000 0.375000 Si
0.125000 0.000000 0.750000 Si
0.500000 0.250000 0.125000 Si
0.000000 0.250000 0.375000 Si
0.750000 0.125000 0.000000 Si
0.750000 0.375000 0.500000 Si
0.125000 0.500000 0.250000 Si
0.500000 0.500000 0.500000 Al
0.000000 0.500000 0.500000 Al
0.750000 0.250000 0.750000 Al
0.750000 0.750000 0.750000 Al
0.500000 0.000000 0.500000 Al
0.500000 0.500000 0.000000 Al
0.750000 0.750000 0.250000 Al
0.250000 0.750000 0.750000 Al
0.500000 0.750000 0.625000 Ca
0.125000 0.500000 0.750000 Ca
0.750000 0.625000 0.500000 Ca
0.500000 0.750000 0.125000 Ca
0.375000 0.000000 0.750000 Ca
0.750000 0.875000 0.000000 Ca
0.000000 0.750000 0.375000 Ca
0.750000 0.125000 0.500000 Ca
0.625000 0.500000 0.750000 Ca
0.750000 0.375000 0.000000 Ca
0.875000 0.000000 0.750000 Ca
0.000000 0.750000 0.875000 Ca
0.538300 0.545400 0.151510 O
0.651510 0.461700 0.545400 O
0.454600 0.651510 0.961700 O
0.538300 0.954600 0.651510 O
0.848490 0.038300 0.954600 O
0.045400 0.848490 0.538300 O
0.961700 0.545400 0.848490 O
0.788300 0.598490 0.704600 O
0.098490 0.295400 0.788300 O
0.795400 0.211700 0.098490 O
0.711700 0.901510 0.795400 O
0.401510 0.204600 0.711700 O
0.704600 0.288300 0.401510 O
0.788300 0.401510 0.795400 O
0.098490 0.704600 0.711700 O
0.795400 0.788300 0.401510 O
0.711700 0.098490 0.704600 O
0.401510 0.795400 0.788300 O
0.704600 0.711700 0.098490 O
0.651510 0.538300 0.954600 O
0.954600 0.848490 0.038300 O
0.538300 0.045400 0.848490 O
0.848490 0.961700 0.545400 O
0.545400 0.651510 0.461700 O
0.961700 0.454600 0.651510 O
0.848490 0.538300 0.045400 O
0.545400 0.848490 0.961700 O
0.461700 0.545400 0.651510 O
0.651510 0.961700 0.454600 O
0.954600 0.651510 0.538300 O
0.038300 0.954600 0.848490 O
0.711700 0.401510 0.204600 O
0.401510 0.704600 0.288300 O
0.704600 0.788300 0.598490 O
0.788300 0.098490 0.295400 O
0.098490 0.795400 0.211700 O
0.795400 0.711700 0.901510 O
0.211700 0.098490 0.795400 O
0.901510 0.795400 0.711700 O
0.204600 0.711700 0.401510 O
0.288300 0.401510 0.704600 O
0.598490 0.704600 0.788300 O
0.295400 0.788300 0.098490 O
0.348490 0.961700 0.954600 O
0.545400 0.151510 0.538300 O
0.961700 0.954600 0.348490 O
0.151510 0.538300 0.545400 O
0.954600 0.348490 0.961700 O
0.875000 0.500000 0.750000 Si
0.750000 0.625000 0.000000 Si
0.500000 0.250000 0.625000 Si
0.875000 0.000000 0.250000 Si
0.750000 0.875000 0.500000 Si
0.000000 0.250000 0.875000 Si
0.625000 0.500000 0.250000 Si
0.000000 0.750000 0.625000 Si
0.500000 0.750000 0.875000 Si
0.250000 0.625000 0.500000 Si
0.250000 0.875000 0.000000 Si
0.625000 0.000000 0.750000 Si
