Ti96
1.0
5.009040 -9.574289 -0.821163
5.787057 10.023477 0.000000
1.167026 -0.673783 14.974704
Ti
96
direct
0.096115 0.173058 0.083333 Ti
0.346115 0.173058 0.083333 Ti
0.596115 0.173058 0.083333 Ti
0.846115 0.173058 0.083333 Ti
0.096115 0.423058 0.083333 Ti
0.346115 0.423058 0.083333 Ti
0.596115 0.423058 0.083333 Ti
0.846115 0.423058 0.083333 Ti
0.096115 0.673058 0.083333 Ti
0.346115 0.673058 0.083333 Ti
0.596115 0.673058 0.083333 Ti
0.846115 0.673058 0.083333 Ti
0.096115 0.923058 0.083333 Ti
0.346115 0.923058 0.083333 Ti
0.596115 0.923058 0.083333 Ti
0.846115 0.923058 0.083333 Ti
0.096115 0.173058 0.416667 Ti
0.346115 0.173058 0.416667 Ti
0.596115 0.173058 0.416667 Ti
0.846115 0.173058 0.416667 Ti
0.096115 0.423058 0.416667 Ti
0.346115 0.423058 0.416667 Ti
0.596115 0.423058 0.416667 Ti
0.846115 0.423058 0.416667 Ti
0.096115 0.673058 0.416667 Ti
0.346115 0.673058 0.416667 Ti
0.596115 0.673058 0.416667 Ti
0.846115 0.673058 0.416667 Ti
0.096115 0.923058 0.416667 Ti
0.346115 0.923058 0.416667 Ti
0.596115 0.923058 0.416667 Ti
0.846115 0.923058 0.416667 Ti
0.096115 0.173058 0.750000 Ti
0.346115 0.173058 0.750000 Ti
0.596115 0.173058 0.750000 Ti
0.846115 0.173058 0.750000 Ti
0.096115 0.423058 0.750000 Ti
0.346115 0.423058 0.750000 Ti
0.596115 0.423058 0.750000 Ti
0.846115 0.423058 0.750000 Ti
0.096115 0.673058 0.750000 Ti
0.346115 0.673058 0.750000 Ti
0.596115 0.673058 0.750000 Ti
0.846115 0.673058 0.750000 Ti
0.096115 0.923058 0.750000 Ti
0.346115 0.923058 0.750000 Ti
0.596115 0.923058 0.750000 Ti
0.846115 0.923058 0.750000 Ti
0.153885 0.076942 0.250000 Ti
0.403885 0.076942 0.250000 Ti
0.653885 0.076942 0.250000 Ti
0.903885 0.076942 0.250000 Ti
0.153885 0.326942 0.250000 Ti
0.403885 0.326942 0.250000 Ti
0.653885 0.326942 0.250000 Ti
0.903885 0.326942 0.250000 Ti
0.153885 0.576942 0.250000 Ti
0.403885 0.576942 0.250000 Ti
0.653885 0.576942 0.250000 Ti
0.903885 0.576942 0.250000 Ti
0.153885 0.826942 0.250000 Ti
0.403885 0.826942 0.250000 Ti
0.653885 0.826942 0.250000 Ti
0.903885 0.826942 0.250000 Ti
0.153885 0.076942 0.583333 Ti
0.403885 0.076942 0.583333 Ti
0.653885 0.076942 0.583333 Ti
0.903885 0.076942 0.583333 Ti
0.153885 0.326942 0.583333 Ti
0.403885 0.326942 0.583333 Ti
0.653885 0.326942 0.583333 Ti
0.903885 0.326942 0.583333 Ti
0.153885 0.576942 0.583333 Ti
0.403885 0.576942 0.583333 Ti
0.653885 0.576942 0.583333 Ti
0.903885 0.576942 0.583333 Ti
0.153885 0.826942 0.583333 Ti
0.403885 0.826942 0.583333 Ti
0.653885 0.826942 0.583333 Ti
0.903885 0.826942 0.583333 Ti
0.153885 0.076942 0.916667 Ti
0.403885 0.076942 0.916667 Ti
0.653885 0.076942 0.916667 Ti
0.903885 0.076942 0.916667 Ti
0.153885 0.326942 0.916667 Ti
0.403885 0.326942 0.916667 Ti
0.653885 0.326942 0.916667 Ti
0.903885 0.326942 0.916667 Ti
0.153885 0.576942 0.916667 Ti
0.403885 0.576942 0.916667 Ti
0.653885 0.576942 0.916667 Ti
0.903885 0.576942 0.916667 Ti
0.153885 0.826942 0.916667 Ti
0.403885 0.826942 0.916667 Ti
0.653885 0.826942 0.916667 Ti
0.903885 0.826942 0.916667 Ti
